p tw 225 47251 2 
1 3 
1 4 
1 5 
1 6 
1 7 
1 8 
1 9 
1 10 
1 11 
1 12 
1 13 
1 14 
1 15 
1 16 
1 21 
1 31 
1 37 
1 46 
1 53 
1 61 
1 65 
1 76 
1 79 
1 91 
1 93 
1 106 
1 119 
1 121 
1 135 
1 136 
1 144 
1 151 
1 152 
1 166 
1 178 
1 181 
1 192 
1 196 
1 206 
1 211 
1 220 
2 3 
2 4 
2 5 
2 6 
2 7 
2 8 
2 9 
2 10 
2 11 
2 12 
2 13 
2 14 
2 15 
2 17 
2 29 
2 32 
2 43 
2 47 
2 57 
2 62 
2 71 
2 77 
2 85 
2 92 
2 94 
2 107 
2 114 
2 122 
2 127 
2 137 
2 150 
2 151 
2 152 
2 167 
2 173 
2 182 
2 186 
2 197 
2 200 
2 212 
2 213 
3 4 
3 5 
3 6 
3 7 
3 8 
3 9 
3 10 
3 11 
3 12 
3 13 
3 14 
3 15 
3 17 
3 18 
3 33 
3 40 
3 46 
3 48 
3 63 
3 74 
3 78 
3 88 
3 93 
3 102 
3 108 
3 120 
3 123 
3 129 
3 138 
3 146 
3 153 
3 155 
3 168 
3 172 
3 183 
3 184 
3 198 
3 203 
3 213 
3 216 
4 5 
4 6 
4 7 
4 8 
4 9 
4 10 
4 11 
4 12 
4 13 
4 14 
4 15 
4 19 
4 24 
4 34 
4 36 
4 49 
4 55 
4 64 
4 72 
4 79 
4 80 
4 94 
4 98 
4 109 
4 112 
4 122 
4 124 
4 136 
4 139 
4 154 
4 165 
4 169 
4 179 
4 184 
4 193 
4 198 
4 199 
4 214 
4 221 
5 6 
5 7 
5 8 
5 9 
5 10 
5 11 
5 12 
5 13 
5 14 
5 15 
5 19 
5 20 
5 33 
5 35 
5 47 
5 50 
5 61 
5 65 
5 80 
5 86 
5 95 
5 104 
5 110 
5 113 
5 125 
5 132 
5 140 
5 141 
5 155 
5 157 
5 170 
5 174 
5 185 
5 195 
5 200 
5 205 
5 215 
5 223 
6 7 
6 8 
6 9 
6 10 
6 11 
6 12 
6 13 
6 14 
6 15 
6 21 
6 25 
6 36 
6 39 
6 51 
6 56 
6 66 
6 67 
6 81 
6 83 
6 95 
6 96 
6 106 
6 111 
6 123 
6 126 
6 137 
6 141 
6 154 
6 156 
6 171 
6 180 
6 186 
6 194 
6 201 
6 208 
6 216 
6 222 
7 8 
7 9 
7 10 
7 11 
7 12 
7 13 
7 14 
7 15 
7 16 
7 22 
7 34 
7 37 
7 50 
7 52 
7 66 
7 67 
7 82 
7 89 
7 97 
7 105 
7 108 
7 112 
7 127 
7 133 
7 142 
7 143 
7 157 
7 161 
7 172 
7 175 
7 187 
7 189 
7 202 
7 207 
7 212 
7 217 
8 9 
8 10 
8 11 
8 12 
8 13 
8 14 
8 15 
8 20 
8 23 
8 31 
8 38 
8 53 
8 60 
8 64 
8 68 
8 78 
8 83 
8 92 
8 98 
8 113 
8 118 
8 128 
8 130 
8 142 
8 143 
8 158 
8 164 
8 173 
8 177 
8 188 
8 191 
8 201 
8 203 
8 218 
8 219 
9 10 
9 11 
9 12 
9 13 
9 14 
9 15 
9 24 
9 28 
9 39 
9 45 
9 48 
9 54 
9 69 
9 70 
9 84 
9 87 
9 99 
9 101 
9 109 
9 114 
9 121 
9 129 
9 144 
9 149 
9 158 
9 159 
9 171 
9 174 
9 185 
9 189 
9 197 
9 204 
9 217 
9 219 
10 11 
10 12 
10 13 
10 14 
10 15 
10 25 
10 26 
10 38 
10 40 
10 54 
10 55 
10 62 
10 70 
10 82 
10 85 
10 96 
10 100 
10 110 
10 115 
10 124 
10 130 
10 145 
10 147 
10 160 
10 163 
10 166 
10 175 
10 183 
10 190 
10 205 
10 209 
10 220 
10 225 
11 12 
11 13 
11 14 
11 15 
11 22 
11 26 
11 41 
11 42 
11 49 
11 56 
11 71 
11 73 
11 86 
11 90 
11 99 
11 101 
11 107 
11 116 
11 126 
11 131 
11 140 
11 146 
11 160 
11 161 
11 168 
11 176 
11 188 
11 191 
11 196 
11 206 
11 221 
11 224 
12 13 
12 14 
12 15 
12 27 
12 30 
12 42 
12 44 
12 57 
12 58 
12 68 
12 72 
12 84 
12 87 
12 100 
12 102 
12 116 
12 117 
12 125 
12 132 
12 138 
12 147 
12 156 
12 162 
12 169 
12 177 
12 182 
12 192 
12 202 
12 207 
12 211 
12 222 
13 14 
13 15 
13 27 
13 28 
13 41 
13 43 
13 58 
13 59 
13 69 
13 73 
13 81 
13 88 
13 97 
13 103 
13 115 
13 118 
13 128 
13 133 
13 139 
13 148 
13 153 
13 163 
13 167 
13 178 
13 181 
13 193 
13 208 
13 210 
13 215 
13 223 
14 15 
14 18 
14 29 
14 32 
14 44 
14 51 
14 59 
14 74 
14 75 
14 76 
14 89 
14 103 
14 104 
14 117 
14 119 
14 131 
14 134 
14 145 
14 149 
14 159 
14 164 
14 170 
14 179 
14 187 
14 194 
14 199 
14 209 
14 218 
14 224 
15 23 
15 30 
15 35 
15 45 
15 52 
15 60 
15 63 
15 75 
15 77 
15 90 
15 91 
15 105 
15 111 
15 120 
15 134 
15 135 
15 148 
15 150 
15 162 
15 165 
15 176 
15 180 
15 190 
15 195 
15 204 
15 210 
15 214 
15 225 
16 17 
16 18 
16 19 
16 20 
16 21 
16 22 
16 23 
16 24 
16 25 
16 26 
16 27 
16 28 
16 29 
16 30 
16 31 
16 34 
16 46 
16 50 
16 61 
16 66 
16 76 
16 89 
16 91 
16 105 
16 106 
16 108 
16 121 
16 133 
16 136 
16 143 
16 151 
16 161 
16 166 
16 175 
16 181 
16 189 
16 196 
16 207 
16 211 
16 212 
17 18 
17 19 
17 20 
17 21 
17 22 
17 23 
17 24 
17 25 
17 26 
17 27 
17 28 
17 29 
17 30 
17 32 
17 40 
17 46 
17 47 
17 62 
17 74 
17 77 
17 88 
17 92 
17 102 
17 107 
17 120 
17 122 
17 129 
17 137 
17 146 
17 152 
17 155 
17 167 
17 172 
17 182 
17 184 
17 197 
17 203 
17 212 
17 216 
18 19 
18 20 
18 21 
18 22 
18 23 
18 24 
18 25 
18 26 
18 27 
18 28 
18 29 
18 30 
18 32 
18 33 
18 48 
18 51 
18 63 
18 75 
18 76 
18 78 
18 93 
18 103 
18 108 
18 117 
18 123 
18 131 
18 138 
18 145 
18 153 
18 159 
18 168 
18 170 
18 183 
18 187 
18 198 
18 199 
18 213 
18 218 
19 20 
19 21 
19 22 
19 23 
19 24 
19 25 
19 26 
19 27 
19 28 
19 29 
19 30 
19 33 
19 34 
19 47 
19 49 
19 61 
19 64 
19 79 
19 86 
19 94 
19 104 
19 109 
19 113 
19 124 
19 132 
19 139 
19 141 
19 154 
19 157 
19 169 
19 174 
19 184 
19 195 
19 199 
19 205 
19 214 
19 223 
20 21 
20 22 
20 23 
20 24 
20 25 
20 26 
20 27 
20 28 
20 29 
20 30 
20 31 
20 35 
20 50 
20 60 
20 64 
20 65 
20 78 
20 80 
20 92 
20 95 
20 110 
20 118 
20 125 
20 130 
20 140 
20 142 
20 155 
20 164 
20 170 
20 177 
20 185 
20 191 
20 200 
20 201 
20 215 
20 219 
21 22 
21 23 
21 24 
21 25 
21 26 
21 27 
21 28 
21 29 
21 30 
21 36 
21 37 
21 51 
21 53 
21 65 
21 66 
21 79 
21 81 
21 93 
21 96 
21 111 
21 119 
21 126 
21 135 
21 141 
21 144 
21 152 
21 156 
21 171 
21 178 
21 186 
21 192 
21 201 
21 206 
21 216 
21 220 
22 23 
22 24 
22 25 
22 26 
22 27 
22 28 
22 29 
22 30 
22 37 
22 42 
22 49 
22 52 
22 67 
22 73 
22 82 
22 90 
22 97 
22 99 
22 107 
22 112 
22 126 
22 127 
22 140 
22 142 
22 157 
22 160 
22 168 
22 172 
22 187 
22 188 
22 196 
22 202 
22 217 
22 224 
23 24 
23 25 
23 26 
23 27 
23 28 
23 29 
23 30 
23 35 
23 38 
23 52 
23 53 
23 63 
23 68 
23 77 
23 83 
23 91 
23 98 
23 111 
23 113 
23 128 
23 134 
23 143 
23 148 
23 158 
23 162 
23 173 
23 176 
23 188 
23 190 
23 203 
23 204 
23 214 
23 218 
24 25 
24 26 
24 27 
24 28 
24 29 
24 30 
24 36 
24 39 
24 54 
24 55 
24 69 
24 72 
24 80 
24 84 
24 98 
24 99 
24 112 
24 114 
24 122 
24 129 
24 136 
24 144 
24 159 
24 165 
24 174 
24 179 
24 189 
24 193 
24 198 
24 204 
24 219 
24 221 
25 26 
25 27 
25 28 
25 29 
25 30 
25 39 
25 40 
25 55 
25 56 
25 67 
25 70 
25 83 
25 85 
25 95 
25 100 
25 106 
25 115 
25 123 
25 130 
25 137 
25 145 
25 154 
25 160 
25 175 
25 180 
25 190 
25 194 
25 205 
25 208 
25 220 
25 222 
26 27 
26 28 
26 29 
26 30 
26 38 
26 41 
26 54 
26 56 
26 62 
26 71 
26 82 
26 86 
26 96 
26 101 
26 110 
26 116 
26 124 
26 131 
26 146 
26 147 
26 161 
26 163 
26 166 
26 176 
26 183 
26 191 
26 206 
26 209 
26 221 
26 225 
27 28 
27 29 
27 30 
27 41 
27 42 
27 57 
27 59 
27 69 
27 72 
27 81 
27 87 
27 97 
27 102 
27 115 
27 117 
27 128 
27 132 
27 139 
27 147 
27 153 
27 162 
27 167 
27 177 
27 181 
27 192 
27 207 
27 210 
27 215 
27 222 
28 29 
28 30 
28 43 
28 45 
28 48 
28 58 
28 70 
28 73 
28 87 
28 88 
28 101 
28 103 
28 109 
28 118 
28 121 
28 133 
28 148 
28 149 
28 158 
28 163 
28 171 
28 178 
28 185 
28 193 
28 197 
28 208 
28 217 
28 223 
29 30 
29 43 
29 44 
29 57 
29 59 
29 71 
29 74 
29 85 
29 89 
29 94 
29 104 
29 114 
29 119 
29 127 
29 134 
29 149 
29 150 
29 151 
29 164 
29 173 
29 179 
29 186 
29 194 
29 200 
29 209 
29 213 
29 224 
30 44 
30 45 
30 58 
30 60 
30 68 
30 75 
30 84 
30 90 
30 100 
30 105 
30 116 
30 120 
30 125 
30 135 
30 138 
30 150 
30 156 
30 165 
30 169 
30 180 
30 182 
30 195 
30 202 
30 210 
30 211 
30 225 
31 32 
31 33 
31 34 
31 35 
31 36 
31 37 
31 38 
31 39 
31 40 
31 41 
31 42 
31 43 
31 44 
31 45 
31 46 
31 60 
31 61 
31 64 
31 76 
31 78 
31 91 
31 92 
31 106 
31 118 
31 121 
31 130 
31 136 
31 142 
31 151 
31 164 
31 166 
31 177 
31 181 
31 191 
31 196 
31 201 
31 211 
31 219 
32 33 
32 34 
32 35 
32 36 
32 37 
32 38 
32 39 
32 40 
32 41 
32 42 
32 43 
32 44 
32 45 
32 47 
32 51 
32 62 
32 75 
32 76 
32 77 
32 92 
32 103 
32 107 
32 117 
32 122 
32 131 
32 137 
32 145 
32 152 
32 159 
32 167 
32 170 
32 182 
32 187 
32 197 
32 199 
32 212 
32 218 
33 34 
33 35 
33 36 
33 37 
33 38 
33 39 
33 40 
33 41 
33 42 
33 43 
33 44 
33 45 
33 47 
33 48 
33 61 
33 63 
33 78 
33 86 
33 93 
33 104 
33 108 
33 113 
33 123 
33 132 
33 138 
33 141 
33 153 
33 157 
33 168 
33 174 
33 183 
33 195 
33 198 
33 205 
33 213 
33 223 
34 35 
34 36 
34 37 
34 38 
34 39 
34 40 
34 41 
34 42 
34 43 
34 44 
34 45 
34 49 
34 50 
34 64 
34 66 
34 79 
34 89 
34 94 
34 105 
34 108 
34 109 
34 124 
34 133 
34 139 
34 143 
34 154 
34 161 
34 169 
34 175 
34 184 
34 189 
34 199 
34 207 
34 212 
34 214 
35 36 
35 37 
35 38 
35 39 
35 40 
35 41 
35 42 
35 43 
35 44 
35 45 
35 50 
35 52 
35 63 
35 65 
35 77 
35 80 
35 91 
35 95 
35 110 
35 111 
35 125 
35 134 
35 140 
35 148 
35 155 
35 162 
35 170 
35 176 
35 185 
35 190 
35 200 
35 204 
35 214 
35 215 
36 37 
36 38 
36 39 
36 40 
36 41 
36 42 
36 43 
36 44 
36 45 
36 51 
36 55 
36 66 
36 72 
36 80 
36 81 
36 96 
36 98 
36 111 
36 112 
36 122 
36 126 
36 136 
36 141 
36 156 
36 165 
36 171 
36 179 
36 186 
36 193 
36 198 
36 201 
36 216 
36 221 
37 38 
37 39 
37 40 
37 41 
37 42 
37 43 
37 44 
37 45 
37 52 
37 53 
37 65 
37 67 
37 79 
37 82 
37 93 
37 97 
37 112 
37 119 
37 127 
37 135 
37 142 
37 144 
37 152 
37 157 
37 172 
37 178 
37 187 
37 192 
37 202 
37 206 
37 217 
37 220 
38 39 
38 40 
38 41 
38 42 
38 43 
38 44 
38 45 
38 53 
38 54 
38 62 
38 68 
38 82 
38 83 
38 96 
38 98 
38 110 
38 113 
38 124 
38 128 
38 143 
38 147 
38 158 
38 163 
38 166 
38 173 
38 183 
38 188 
38 203 
38 209 
38 218 
38 225 
39 40 
39 41 
39 42 
39 43 
39 44 
39 45 
39 54 
39 56 
39 67 
39 69 
39 83 
39 84 
39 95 
39 99 
39 106 
39 114 
39 123 
39 129 
39 137 
39 144 
39 154 
39 159 
39 174 
39 180 
39 189 
39 194 
39 204 
39 208 
39 219 
39 222 
40 41 
40 42 
40 43 
40 44 
40 45 
40 46 
40 55 
40 70 
40 74 
40 85 
40 88 
40 100 
40 102 
40 115 
40 120 
40 129 
40 130 
40 145 
40 146 
40 155 
40 160 
40 172 
40 175 
40 184 
40 190 
40 203 
40 205 
40 216 
40 220 
41 42 
41 43 
41 44 
41 45 
41 56 
41 59 
41 69 
41 71 
41 81 
41 86 
41 97 
41 101 
41 115 
41 116 
41 128 
41 131 
41 139 
41 146 
41 153 
41 161 
41 167 
41 176 
41 181 
41 191 
41 206 
41 210 
41 215 
41 221 
42 43 
42 44 
42 45 
42 49 
42 57 
42 72 
42 73 
42 87 
42 90 
42 99 
42 102 
42 107 
42 117 
42 126 
42 132 
42 140 
42 147 
42 160 
42 162 
42 168 
42 177 
42 188 
42 192 
42 196 
42 207 
42 222 
42 224 
43 44 
43 45 
43 57 
43 58 
43 71 
43 73 
43 85 
43 88 
43 94 
43 103 
43 114 
43 118 
43 127 
43 133 
43 148 
43 150 
43 151 
43 163 
43 173 
43 178 
43 186 
43 193 
43 200 
43 208 
43 213 
43 223 
44 45 
44 58 
44 59 
44 68 
44 74 
44 84 
44 89 
44 100 
44 104 
44 116 
44 119 
44 125 
44 134 
44 138 
44 149 
44 156 
44 164 
44 169 
44 179 
44 182 
44 194 
44 202 
44 209 
44 211 
44 224 
45 48 
45 60 
45 70 
45 75 
45 87 
45 90 
45 101 
45 105 
45 109 
45 120 
45 121 
45 135 
45 149 
45 150 
45 158 
45 165 
45 171 
45 180 
45 185 
45 195 
45 197 
45 210 
45 217 
45 225 
46 47 
46 48 
46 49 
46 50 
46 51 
46 52 
46 53 
46 54 
46 55 
46 56 
46 57 
46 58 
46 59 
46 60 
46 61 
46 74 
46 76 
46 88 
46 91 
46 102 
46 106 
46 120 
46 121 
46 129 
46 136 
46 146 
46 151 
46 155 
46 166 
46 172 
46 181 
46 184 
46 196 
46 203 
46 211 
46 216 
47 48 
47 49 
47 50 
47 51 
47 52 
47 53 
47 54 
47 55 
47 56 
47 57 
47 58 
47 59 
47 60 
47 61 
47 62 
47 77 
47 86 
47 92 
47 104 
47 107 
47 113 
47 122 
47 132 
47 137 
47 141 
47 152 
47 157 
47 167 
47 174 
47 182 
47 195 
47 197 
47 205 
47 212 
47 223 
48 49 
48 50 
48 51 
48 52 
48 53 
48 54 
48 55 
48 56 
48 57 
48 58 
48 59 
48 60 
48 63 
48 70 
48 78 
48 87 
48 93 
48 101 
48 108 
48 109 
48 121 
48 123 
48 138 
48 149 
48 153 
48 158 
48 168 
48 171 
48 183 
48 185 
48 197 
48 198 
48 213 
48 217 
49 50 
49 51 
49 52 
49 53 
49 54 
49 55 
49 56 
49 57 
49 58 
49 59 
49 60 
49 64 
49 73 
49 79 
49 90 
49 94 
49 99 
49 107 
49 109 
49 124 
49 126 
49 139 
49 140 
49 154 
49 160 
49 168 
49 169 
49 184 
49 188 
49 196 
49 199 
49 214 
49 224 
50 51 
50 52 
50 53 
50 54 
50 55 
50 56 
50 57 
50 58 
50 59 
50 60 
50 65 
50 66 
50 80 
50 89 
50 95 
50 105 
50 108 
50 110 
50 125 
50 133 
50 140 
50 143 
50 155 
50 161 
50 170 
50 175 
50 185 
50 189 
50 200 
50 207 
50 212 
50 215 
51 52 
51 53 
51 54 
51 55 
51 56 
51 57 
51 58 
51 59 
51 60 
51 66 
51 75 
51 76 
51 81 
51 96 
51 103 
51 111 
51 117 
51 126 
51 131 
51 141 
51 145 
51 156 
51 159 
51 170 
51 171 
51 186 
51 187 
51 199 
51 201 
51 216 
51 218 
52 53 
52 54 
52 55 
52 56 
52 57 
52 58 
52 59 
52 60 
52 63 
52 67 
52 77 
52 82 
52 91 
52 97 
52 111 
52 112 
52 127 
52 134 
52 142 
52 148 
52 157 
52 162 
52 172 
52 176 
52 187 
52 190 
52 202 
52 204 
52 214 
52 217 
53 54 
53 55 
53 56 
53 57 
53 58 
53 59 
53 60 
53 65 
53 68 
53 79 
53 83 
53 93 
53 98 
53 113 
53 119 
53 128 
53 135 
53 143 
53 144 
53 152 
53 158 
53 173 
53 178 
53 188 
53 192 
53 203 
53 206 
53 218 
53 220 
54 55 
54 56 
54 57 
54 58 
54 59 
54 60 
54 62 
54 69 
54 82 
54 84 
54 96 
54 99 
54 110 
54 114 
54 124 
54 129 
54 144 
54 147 
54 159 
54 163 
54 166 
54 174 
54 183 
54 189 
54 204 
54 209 
54 219 
54 225 
55 56 
55 57 
55 58 
55 59 
55 60 
55 70 
55 72 
55 80 
55 85 
55 98 
55 100 
55 112 
55 115 
55 122 
55 130 
55 136 
55 145 
55 160 
55 165 
55 175 
55 179 
55 190 
55 193 
55 198 
55 205 
55 220 
55 221 
56 57 
56 58 
56 59 
56 60 
56 67 
56 71 
56 83 
56 86 
56 95 
56 101 
56 106 
56 116 
56 123 
56 131 
56 137 
56 146 
56 154 
56 161 
56 176 
56 180 
56 191 
56 194 
56 206 
56 208 
56 221 
56 222 
57 58 
57 59 
57 60 
57 71 
57 72 
57 85 
57 87 
57 94 
57 102 
57 114 
57 117 
57 127 
57 132 
57 147 
57 150 
57 151 
57 162 
57 173 
57 177 
57 186 
57 192 
57 200 
57 207 
57 213 
57 222 
58 59 
58 60 
58 68 
58 73 
58 84 
58 88 
58 100 
58 103 
58 116 
58 118 
58 125 
58 133 
58 138 
58 148 
58 156 
58 163 
58 169 
58 178 
58 182 
58 193 
58 202 
58 208 
58 211 
58 223 
59 60 
59 69 
59 74 
59 81 
59 89 
59 97 
59 104 
59 115 
59 119 
59 128 
59 134 
59 139 
59 149 
59 153 
59 164 
59 167 
59 179 
59 181 
59 194 
59 209 
59 210 
59 215 
59 224 
60 64 
60 75 
60 78 
60 90 
60 92 
60 105 
60 118 
60 120 
60 130 
60 135 
60 142 
60 150 
60 164 
60 165 
60 177 
60 180 
60 191 
60 195 
60 201 
60 210 
60 219 
60 225 
61 62 
61 63 
61 64 
61 65 
61 66 
61 67 
61 68 
61 69 
61 70 
61 71 
61 72 
61 73 
61 74 
61 75 
61 76 
61 86 
61 91 
61 104 
61 106 
61 113 
61 121 
61 132 
61 136 
61 141 
61 151 
61 157 
61 166 
61 174 
61 181 
61 195 
61 196 
61 205 
61 211 
61 223 
62 63 
62 64 
62 65 
62 66 
62 67 
62 68 
62 69 
62 70 
62 71 
62 72 
62 73 
62 74 
62 75 
62 77 
62 82 
62 92 
62 96 
62 107 
62 110 
62 122 
62 124 
62 137 
62 147 
62 152 
62 163 
62 166 
62 167 
62 182 
62 183 
62 197 
62 209 
62 212 
62 225 
63 64 
63 65 
63 66 
63 67 
63 68 
63 69 
63 70 
63 71 
63 72 
63 73 
63 74 
63 75 
63 77 
63 78 
63 91 
63 93 
63 108 
63 111 
63 123 
63 134 
63 138 
63 148 
63 153 
63 162 
63 168 
63 176 
63 183 
63 190 
63 198 
63 204 
63 213 
63 214 
64 65 
64 66 
64 67 
64 68 
64 69 
64 70 
64 71 
64 72 
64 73 
64 74 
64 75 
64 78 
64 79 
64 92 
64 94 
64 109 
64 118 
64 124 
64 130 
64 139 
64 142 
64 154 
64 164 
64 169 
64 177 
64 184 
64 191 
64 199 
64 201 
64 214 
64 219 
65 66 
65 67 
65 68 
65 69 
65 70 
65 71 
65 72 
65 73 
65 74 
65 75 
65 79 
65 80 
65 93 
65 95 
65 110 
65 119 
65 125 
65 135 
65 140 
65 144 
65 152 
65 155 
65 170 
65 178 
65 185 
65 192 
65 200 
65 206 
65 215 
65 220 
66 67 
66 68 
66 69 
66 70 
66 71 
66 72 
66 73 
66 74 
66 75 
66 81 
66 89 
66 96 
66 105 
66 108 
66 111 
66 126 
66 133 
66 141 
66 143 
66 156 
66 161 
66 171 
66 175 
66 186 
66 189 
66 201 
66 207 
66 212 
66 216 
67 68 
67 69 
67 70 
67 71 
67 72 
67 73 
67 74 
67 75 
67 82 
67 83 
67 95 
67 97 
67 106 
67 112 
67 123 
67 127 
67 137 
67 142 
67 154 
67 157 
67 172 
67 180 
67 187 
67 194 
67 202 
67 208 
67 217 
67 222 
68 69 
68 70 
68 71 
68 72 
68 73 
68 74 
68 75 
68 83 
68 84 
68 98 
68 100 
68 113 
68 116 
68 125 
68 128 
68 138 
68 143 
68 156 
68 158 
68 169 
68 173 
68 182 
68 188 
68 202 
68 203 
68 211 
68 218 
69 70 
69 71 
69 72 
69 73 
69 74 
69 75 
69 81 
69 84 
69 97 
69 99 
69 114 
69 115 
69 128 
69 129 
69 139 
69 144 
69 153 
69 159 
69 167 
69 174 
69 181 
69 189 
69 204 
69 210 
69 215 
69 219 
70 71 
70 72 
70 73 
70 74 
70 75 
70 85 
70 87 
70 100 
70 101 
70 109 
70 115 
70 121 
70 130 
70 145 
70 149 
70 158 
70 160 
70 171 
70 175 
70 185 
70 190 
70 197 
70 205 
70 217 
70 220 
71 72 
71 73 
71 74 
71 75 
71 85 
71 86 
71 94 
71 101 
71 114 
71 116 
71 127 
71 131 
71 146 
71 150 
71 151 
71 161 
71 173 
71 176 
71 186 
71 191 
71 200 
71 206 
71 213 
71 221 
72 73 
72 74 
72 75 
72 80 
72 87 
72 98 
72 102 
72 112 
72 117 
72 122 
72 132 
72 136 
72 147 
72 162 
72 165 
72 177 
72 179 
72 192 
72 193 
72 198 
72 207 
72 221 
72 222 
73 74 
73 75 
73 88 
73 90 
73 99 
73 103 
73 107 
73 118 
73 126 
73 133 
73 140 
73 148 
73 160 
73 163 
73 168 
73 178 
73 188 
73 193 
73 196 
73 208 
73 223 
73 224 
74 75 
74 88 
74 89 
74 102 
74 104 
74 119 
74 120 
74 129 
74 134 
74 146 
74 149 
74 155 
74 164 
74 172 
74 179 
74 184 
74 194 
74 203 
74 209 
74 216 
74 224 
75 76 
75 90 
75 103 
75 105 
75 117 
75 120 
75 131 
75 135 
75 145 
75 150 
75 159 
75 165 
75 170 
75 180 
75 187 
75 195 
75 199 
75 210 
75 218 
75 225 
76 77 
76 78 
76 79 
76 80 
76 81 
76 82 
76 83 
76 84 
76 85 
76 86 
76 87 
76 88 
76 89 
76 90 
76 91 
76 103 
76 106 
76 117 
76 121 
76 131 
76 136 
76 145 
76 151 
76 159 
76 166 
76 170 
76 181 
76 187 
76 196 
76 199 
76 211 
76 218 
77 78 
77 79 
77 80 
77 81 
77 82 
77 83 
77 84 
77 85 
77 86 
77 87 
77 88 
77 89 
77 90 
77 91 
77 92 
77 107 
77 111 
77 122 
77 134 
77 137 
77 148 
77 152 
77 162 
77 167 
77 176 
77 182 
77 190 
77 197 
77 204 
77 212 
77 214 
78 79 
78 80 
78 81 
78 82 
78 83 
78 84 
78 85 
78 86 
78 87 
78 88 
78 89 
78 90 
78 92 
78 93 
78 108 
78 118 
78 123 
78 130 
78 138 
78 142 
78 153 
78 164 
78 168 
78 177 
78 183 
78 191 
78 198 
78 201 
78 213 
78 219 
79 80 
79 81 
79 82 
79 83 
79 84 
79 85 
79 86 
79 87 
79 88 
79 89 
79 90 
79 93 
79 94 
79 109 
79 119 
79 124 
79 135 
79 139 
79 144 
79 152 
79 154 
79 169 
79 178 
79 184 
79 192 
79 199 
79 206 
79 214 
79 220 
80 81 
80 82 
80 83 
80 84 
80 85 
80 86 
80 87 
80 88 
80 89 
80 90 
80 95 
80 98 
80 110 
80 112 
80 122 
80 125 
80 136 
80 140 
80 155 
80 165 
80 170 
80 179 
80 185 
80 193 
80 198 
80 200 
80 215 
80 221 
81 82 
81 83 
81 84 
81 85 
81 86 
81 87 
81 88 
81 89 
81 90 
81 96 
81 97 
81 111 
81 115 
81 126 
81 128 
81 139 
81 141 
81 153 
81 156 
81 167 
81 171 
81 181 
81 186 
81 201 
81 210 
81 215 
81 216 
82 83 
82 84 
82 85 
82 86 
82 87 
82 88 
82 89 
82 90 
82 96 
82 97 
82 110 
82 112 
82 124 
82 127 
82 142 
82 147 
82 157 
82 163 
82 166 
82 172 
82 183 
82 187 
82 202 
82 209 
82 217 
82 225 
83 84 
83 85 
83 86 
83 87 
83 88 
83 89 
83 90 
83 95 
83 98 
83 106 
83 113 
83 123 
83 128 
83 137 
83 143 
83 154 
83 158 
83 173 
83 180 
83 188 
83 194 
83 203 
83 208 
83 218 
83 222 
84 85 
84 86 
84 87 
84 88 
84 89 
84 90 
84 99 
84 100 
84 114 
84 116 
84 125 
84 129 
84 138 
84 144 
84 156 
84 159 
84 169 
84 174 
84 182 
84 189 
84 202 
84 204 
84 211 
84 219 
85 86 
85 87 
85 88 
85 89 
85 90 
85 94 
85 100 
85 114 
85 115 
85 127 
85 130 
85 145 
85 150 
85 151 
85 160 
85 173 
85 175 
85 186 
85 190 
85 200 
85 205 
85 213 
85 220 
86 87 
86 88 
86 89 
86 90 
86 101 
86 104 
86 113 
86 116 
86 131 
86 132 
86 141 
86 146 
86 157 
86 161 
86 174 
86 176 
86 191 
86 195 
86 205 
86 206 
86 221 
86 223 
87 88 
87 89 
87 90 
87 101 
87 102 
87 109 
87 117 
87 121 
87 132 
87 147 
87 149 
87 158 
87 162 
87 171 
87 177 
87 185 
87 192 
87 197 
87 207 
87 217 
87 222 
88 89 
88 90 
88 102 
88 103 
88 118 
88 120 
88 129 
88 133 
88 146 
88 148 
88 155 
88 163 
88 172 
88 178 
88 184 
88 193 
88 203 
88 208 
88 216 
88 223 
89 90 
89 104 
89 105 
89 108 
89 119 
89 133 
89 134 
89 143 
89 149 
89 161 
89 164 
89 175 
89 179 
89 189 
89 194 
89 207 
89 209 
89 212 
89 224 
90 99 
90 105 
90 107 
90 120 
90 126 
90 135 
90 140 
90 150 
90 160 
90 165 
90 168 
90 180 
90 188 
90 195 
90 196 
90 210 
90 224 
90 225 
91 92 
91 93 
91 94 
91 95 
91 96 
91 97 
91 98 
91 99 
91 100 
91 101 
91 102 
91 103 
91 104 
91 105 
91 106 
91 111 
91 121 
91 134 
91 136 
91 148 
91 151 
91 162 
91 166 
91 176 
91 181 
91 190 
91 196 
91 204 
91 211 
91 214 
92 93 
92 94 
92 95 
92 96 
92 97 
92 98 
92 99 
92 100 
92 101 
92 102 
92 103 
92 104 
92 105 
92 107 
92 118 
92 122 
92 130 
92 137 
92 142 
92 152 
92 164 
92 167 
92 177 
92 182 
92 191 
92 197 
92 201 
92 212 
92 219 
93 94 
93 95 
93 96 
93 97 
93 98 
93 99 
93 100 
93 101 
93 102 
93 103 
93 104 
93 105 
93 108 
93 119 
93 123 
93 135 
93 138 
93 144 
93 152 
93 153 
93 168 
93 178 
93 183 
93 192 
93 198 
93 206 
93 213 
93 220 
94 95 
94 96 
94 97 
94 98 
94 99 
94 100 
94 101 
94 102 
94 103 
94 104 
94 105 
94 109 
94 114 
94 124 
94 127 
94 139 
94 150 
94 151 
94 154 
94 169 
94 173 
94 184 
94 186 
94 199 
94 200 
94 213 
94 214 
95 96 
95 97 
95 98 
95 99 
95 100 
95 101 
95 102 
95 103 
95 104 
95 105 
95 106 
95 110 
95 123 
95 125 
95 137 
95 140 
95 154 
95 155 
95 170 
95 180 
95 185 
95 194 
95 200 
95 208 
95 215 
95 222 
96 97 
96 98 
96 99 
96 100 
96 101 
96 102 
96 103 
96 104 
96 105 
96 110 
96 111 
96 124 
96 126 
96 141 
96 147 
96 156 
96 163 
96 166 
96 171 
96 183 
96 186 
96 201 
96 209 
96 216 
96 225 
97 98 
97 99 
97 100 
97 101 
97 102 
97 103 
97 104 
97 105 
97 112 
97 115 
97 127 
97 128 
97 139 
97 142 
97 153 
97 157 
97 167 
97 172 
97 181 
97 187 
97 202 
97 210 
97 215 
97 217 
98 99 
98 100 
98 101 
98 102 
98 103 
98 104 
98 105 
98 112 
98 113 
98 122 
98 128 
98 136 
98 143 
98 158 
98 165 
98 173 
98 179 
98 188 
98 193 
98 198 
98 203 
98 218 
98 221 
99 100 
99 101 
99 102 
99 103 
99 104 
99 105 
99 107 
99 114 
99 126 
99 129 
99 140 
99 144 
99 159 
99 160 
99 168 
99 174 
99 188 
99 189 
99 196 
99 204 
99 219 
99 224 
100 101 
100 102 
100 103 
100 104 
100 105 
100 115 
100 116 
100 125 
100 130 
100 138 
100 145 
100 156 
100 160 
100 169 
100 175 
100 182 
100 190 
100 202 
100 205 
100 211 
100 220 
101 102 
101 103 
101 104 
101 105 
101 109 
101 116 
101 121 
101 131 
101 146 
101 149 
101 158 
101 161 
101 171 
101 176 
101 185 
101 191 
101 197 
101 206 
101 217 
101 221 
102 103 
102 104 
102 105 
102 117 
102 120 
102 129 
102 132 
102 146 
102 147 
102 155 
102 162 
102 172 
102 177 
102 184 
102 192 
102 203 
102 207 
102 216 
102 222 
103 104 
103 105 
103 117 
103 118 
103 131 
103 133 
103 145 
103 148 
103 159 
103 163 
103 170 
103 178 
103 187 
103 193 
103 199 
103 208 
103 218 
103 223 
104 105 
104 113 
104 119 
104 132 
104 134 
104 141 
104 149 
104 157 
104 164 
104 174 
104 179 
104 194 
104 195 
104 205 
104 209 
104 223 
104 224 
105 108 
105 120 
105 133 
105 135 
105 143 
105 150 
105 161 
105 165 
105 175 
105 180 
105 189 
105 195 
105 207 
105 210 
105 212 
105 225 
106 107 
106 108 
106 109 
106 110 
106 111 
106 112 
106 113 
106 114 
106 115 
106 116 
106 117 
106 118 
106 119 
106 120 
106 121 
106 123 
106 136 
106 137 
106 151 
106 154 
106 166 
106 180 
106 181 
106 194 
106 196 
106 208 
106 211 
106 222 
107 108 
107 109 
107 110 
107 111 
107 112 
107 113 
107 114 
107 115 
107 116 
107 117 
107 118 
107 119 
107 120 
107 122 
107 126 
107 137 
107 140 
107 152 
107 160 
107 167 
107 168 
107 182 
107 188 
107 196 
107 197 
107 212 
107 224 
108 109 
108 110 
108 111 
108 112 
108 113 
108 114 
108 115 
108 116 
108 117 
108 118 
108 119 
108 120 
108 123 
108 133 
108 138 
108 143 
108 153 
108 161 
108 168 
108 175 
108 183 
108 189 
108 198 
108 207 
108 212 
108 213 
109 110 
109 111 
109 112 
109 113 
109 114 
109 115 
109 116 
109 117 
109 118 
109 119 
109 120 
109 121 
109 124 
109 139 
109 149 
109 154 
109 158 
109 169 
109 171 
109 184 
109 185 
109 197 
109 199 
109 214 
109 217 
110 111 
110 112 
110 113 
110 114 
110 115 
110 116 
110 117 
110 118 
110 119 
110 120 
110 124 
110 125 
110 140 
110 147 
110 155 
110 163 
110 166 
110 170 
110 183 
110 185 
110 200 
110 209 
110 215 
110 225 
111 112 
111 113 
111 114 
111 115 
111 116 
111 117 
111 118 
111 119 
111 120 
111 126 
111 134 
111 141 
111 148 
111 156 
111 162 
111 171 
111 176 
111 186 
111 190 
111 201 
111 204 
111 214 
111 216 
112 113 
112 114 
112 115 
112 116 
112 117 
112 118 
112 119 
112 120 
112 122 
112 127 
112 136 
112 142 
112 157 
112 165 
112 172 
112 179 
112 187 
112 193 
112 198 
112 202 
112 217 
112 221 
113 114 
113 115 
113 116 
113 117 
113 118 
113 119 
113 120 
113 128 
113 132 
113 141 
113 143 
113 157 
113 158 
113 173 
113 174 
113 188 
113 195 
113 203 
113 205 
113 218 
113 223 
114 115 
114 116 
114 117 
114 118 
114 119 
114 120 
114 127 
114 129 
114 144 
114 150 
114 151 
114 159 
114 173 
114 174 
114 186 
114 189 
114 200 
114 204 
114 213 
114 219 
115 116 
115 117 
115 118 
115 119 
115 120 
115 128 
115 130 
115 139 
115 145 
115 153 
115 160 
115 167 
115 175 
115 181 
115 190 
115 205 
115 210 
115 215 
115 220 
116 117 
116 118 
116 119 
116 120 
116 125 
116 131 
116 138 
116 146 
116 156 
116 161 
116 169 
116 176 
116 182 
116 191 
116 202 
116 206 
116 211 
116 221 
117 118 
117 119 
117 120 
117 131 
117 132 
117 145 
117 147 
117 159 
117 162 
117 170 
117 177 
117 187 
117 192 
117 199 
117 207 
117 218 
117 222 
118 119 
118 120 
118 130 
118 133 
118 142 
118 148 
118 163 
118 164 
118 177 
118 178 
118 191 
118 193 
118 201 
118 208 
118 219 
118 223 
119 120 
119 134 
119 135 
119 144 
119 149 
119 152 
119 164 
119 178 
119 179 
119 192 
119 194 
119 206 
119 209 
119 220 
119 224 
120 129 
120 135 
120 146 
120 150 
120 155 
120 165 
120 172 
120 180 
120 184 
120 195 
120 203 
120 210 
120 216 
120 225 
121 122 
121 123 
121 124 
121 125 
121 126 
121 127 
121 128 
121 129 
121 130 
121 131 
121 132 
121 133 
121 134 
121 135 
121 136 
121 149 
121 151 
121 158 
121 166 
121 171 
121 181 
121 185 
121 196 
121 197 
121 211 
121 217 
122 123 
122 124 
122 125 
122 126 
122 127 
122 128 
122 129 
122 130 
122 131 
122 132 
122 133 
122 134 
122 135 
122 136 
122 137 
122 152 
122 165 
122 167 
122 179 
122 182 
122 193 
122 197 
122 198 
122 212 
122 221 
123 124 
123 125 
123 126 
123 127 
123 128 
123 129 
123 130 
123 131 
123 132 
123 133 
123 134 
123 135 
123 137 
123 138 
123 153 
123 154 
123 168 
123 180 
123 183 
123 194 
123 198 
123 208 
123 213 
123 222 
124 125 
124 126 
124 127 
124 128 
124 129 
124 130 
124 131 
124 132 
124 133 
124 134 
124 135 
124 139 
124 147 
124 154 
124 163 
124 166 
124 169 
124 183 
124 184 
124 199 
124 209 
124 214 
124 225 
125 126 
125 127 
125 128 
125 129 
125 130 
125 131 
125 132 
125 133 
125 134 
125 135 
125 138 
125 140 
125 155 
125 156 
125 169 
125 170 
125 182 
125 185 
125 200 
125 202 
125 211 
125 215 
126 127 
126 128 
126 129 
126 130 
126 131 
126 132 
126 133 
126 134 
126 135 
126 140 
126 141 
126 156 
126 160 
126 168 
126 171 
126 186 
126 188 
126 196 
126 201 
126 216 
126 224 
127 128 
127 129 
127 130 
127 131 
127 132 
127 133 
127 134 
127 135 
127 142 
127 150 
127 151 
127 157 
127 172 
127 173 
127 186 
127 187 
127 200 
127 202 
127 213 
127 217 
128 129 
128 130 
128 131 
128 132 
128 133 
128 134 
128 135 
128 139 
128 143 
128 153 
128 158 
128 167 
128 173 
128 181 
128 188 
128 203 
128 210 
128 215 
128 218 
129 130 
129 131 
129 132 
129 133 
129 134 
129 135 
129 144 
129 146 
129 155 
129 159 
129 172 
129 174 
129 184 
129 189 
129 203 
129 204 
129 216 
129 219 
130 131 
130 132 
130 133 
130 134 
130 135 
130 142 
130 145 
130 160 
130 164 
130 175 
130 177 
130 190 
130 191 
130 201 
130 205 
130 219 
130 220 
131 132 
131 133 
131 134 
131 135 
131 145 
131 146 
131 159 
131 161 
131 170 
131 176 
131 187 
131 191 
131 199 
131 206 
131 218 
131 221 
132 133 
132 134 
132 135 
132 141 
132 147 
132 157 
132 162 
132 174 
132 177 
132 192 
132 195 
132 205 
132 207 
132 222 
132 223 
133 134 
133 135 
133 143 
133 148 
133 161 
133 163 
133 175 
133 178 
133 189 
133 193 
133 207 
133 208 
133 212 
133 223 
134 135 
134 148 
134 149 
134 162 
134 164 
134 176 
134 179 
134 190 
134 194 
134 204 
134 209 
134 214 
134 224 
135 144 
135 150 
135 152 
135 165 
135 178 
135 180 
135 192 
135 195 
135 206 
135 210 
135 220 
135 225 
136 137 
136 138 
136 139 
136 140 
136 141 
136 142 
136 143 
136 144 
136 145 
136 146 
136 147 
136 148 
136 149 
136 150 
136 151 
136 165 
136 166 
136 179 
136 181 
136 193 
136 196 
136 198 
136 211 
136 221 
137 138 
137 139 
137 140 
137 141 
137 142 
137 143 
137 144 
137 145 
137 146 
137 147 
137 148 
137 149 
137 150 
137 152 
137 154 
137 167 
137 180 
137 182 
137 194 
137 197 
137 208 
137 212 
137 222 
138 139 
138 140 
138 141 
138 142 
138 143 
138 144 
138 145 
138 146 
138 147 
138 148 
138 149 
138 150 
138 153 
138 156 
138 168 
138 169 
138 182 
138 183 
138 198 
138 202 
138 211 
138 213 
139 140 
139 141 
139 142 
139 143 
139 144 
139 145 
139 146 
139 147 
139 148 
139 149 
139 150 
139 153 
139 154 
139 167 
139 169 
139 181 
139 184 
139 199 
139 210 
139 214 
139 215 
140 141 
140 142 
140 143 
140 144 
140 145 
140 146 
140 147 
140 148 
140 149 
140 150 
140 155 
140 160 
140 168 
140 170 
140 185 
140 188 
140 196 
140 200 
140 215 
140 224 
141 142 
141 143 
141 144 
141 145 
141 146 
141 147 
141 148 
141 149 
141 150 
141 156 
141 157 
141 171 
141 174 
141 186 
141 195 
141 201 
141 205 
141 216 
141 223 
142 143 
142 144 
142 145 
142 146 
142 147 
142 148 
142 149 
142 150 
142 157 
142 164 
142 172 
142 177 
142 187 
142 191 
142 201 
142 202 
142 217 
142 219 
143 144 
143 145 
143 146 
143 147 
143 148 
143 149 
143 150 
143 158 
143 161 
143 173 
143 175 
143 188 
143 189 
143 203 
143 207 
143 212 
143 218 
144 145 
144 146 
144 147 
144 148 
144 149 
144 150 
144 152 
144 159 
144 174 
144 178 
144 189 
144 192 
144 204 
144 206 
144 219 
144 220 
145 146 
145 147 
145 148 
145 149 
145 150 
145 159 
145 160 
145 170 
145 175 
145 187 
145 190 
145 199 
145 205 
145 218 
145 220 
146 147 
146 148 
146 149 
146 150 
146 155 
146 161 
146 172 
146 176 
146 184 
146 191 
146 203 
146 206 
146 216 
146 221 
147 148 
147 149 
147 150 
147 162 
147 163 
147 166 
147 177 
147 183 
147 192 
147 207 
147 209 
147 222 
147 225 
148 149 
148 150 
148 162 
148 163 
148 176 
148 178 
148 190 
148 193 
148 204 
148 208 
148 214 
148 223 
149 150 
149 158 
149 164 
149 171 
149 179 
149 185 
149 194 
149 197 
149 209 
149 217 
149 224 
150 151 
150 165 
150 173 
150 180 
150 186 
150 195 
150 200 
150 210 
150 213 
150 225 
151 152 
151 153 
151 154 
151 155 
151 156 
151 157 
151 158 
151 159 
151 160 
151 161 
151 162 
151 163 
151 164 
151 165 
151 166 
151 173 
151 181 
151 186 
151 196 
151 200 
151 211 
151 213 
152 153 
152 154 
152 155 
152 156 
152 157 
152 158 
152 159 
152 160 
152 161 
152 162 
152 163 
152 164 
152 165 
152 167 
152 178 
152 182 
152 192 
152 197 
152 206 
152 212 
152 220 
153 154 
153 155 
153 156 
153 157 
153 158 
153 159 
153 160 
153 161 
153 162 
153 163 
153 164 
153 165 
153 167 
153 168 
153 181 
153 183 
153 198 
153 210 
153 213 
153 215 
154 155 
154 156 
154 157 
154 158 
154 159 
154 160 
154 161 
154 162 
154 163 
154 164 
154 165 
154 169 
154 180 
154 184 
154 194 
154 199 
154 208 
154 214 
154 222 
155 156 
155 157 
155 158 
155 159 
155 160 
155 161 
155 162 
155 163 
155 164 
155 165 
155 170 
155 172 
155 184 
155 185 
155 200 
155 203 
155 215 
155 216 
156 157 
156 158 
156 159 
156 160 
156 161 
156 162 
156 163 
156 164 
156 165 
156 169 
156 171 
156 182 
156 186 
156 201 
156 202 
156 211 
156 216 
157 158 
157 159 
157 160 
157 161 
157 162 
157 163 
157 164 
157 165 
157 172 
157 174 
157 187 
157 195 
157 202 
157 205 
157 217 
157 223 
158 159 
158 160 
158 161 
158 162 
158 163 
158 164 
158 165 
158 171 
158 173 
158 185 
158 188 
158 197 
158 203 
158 217 
158 218 
159 160 
159 161 
159 162 
159 163 
159 164 
159 165 
159 170 
159 174 
159 187 
159 189 
159 199 
159 204 
159 218 
159 219 
160 161 
160 162 
160 163 
160 164 
160 165 
160 168 
160 175 
160 188 
160 190 
160 196 
160 205 
160 220 
160 224 
161 162 
161 163 
161 164 
161 165 
161 175 
161 176 
161 189 
161 191 
161 206 
161 207 
161 212 
161 221 
162 163 
162 164 
162 165 
162 176 
162 177 
162 190 
162 192 
162 204 
162 207 
162 214 
162 222 
163 164 
163 165 
163 166 
163 178 
163 183 
163 193 
163 208 
163 209 
163 223 
163 225 
164 165 
164 177 
164 179 
164 191 
164 194 
164 201 
164 209 
164 219 
164 224 
165 179 
165 180 
165 193 
165 195 
165 198 
165 210 
165 221 
165 225 
166 167 
166 168 
166 169 
166 170 
166 171 
166 172 
166 173 
166 174 
166 175 
166 176 
166 177 
166 178 
166 179 
166 180 
166 181 
166 183 
166 196 
166 209 
166 211 
166 225 
167 168 
167 169 
167 170 
167 171 
167 172 
167 173 
167 174 
167 175 
167 176 
167 177 
167 178 
167 179 
167 180 
167 181 
167 182 
167 197 
167 210 
167 212 
167 215 
168 169 
168 170 
168 171 
168 172 
168 173 
168 174 
168 175 
168 176 
168 177 
168 178 
168 179 
168 180 
168 183 
168 188 
168 196 
168 198 
168 213 
168 224 
169 170 
169 171 
169 172 
169 173 
169 174 
169 175 
169 176 
169 177 
169 178 
169 179 
169 180 
169 182 
169 184 
169 199 
169 202 
169 211 
169 214 
170 171 
170 172 
170 173 
170 174 
170 175 
170 176 
170 177 
170 178 
170 179 
170 180 
170 185 
170 187 
170 199 
170 200 
170 215 
170 218 
171 172 
171 173 
171 174 
171 175 
171 176 
171 177 
171 178 
171 179 
171 180 
171 185 
171 186 
171 197 
171 201 
171 216 
171 217 
172 173 
172 174 
172 175 
172 176 
172 177 
172 178 
172 179 
172 180 
172 184 
172 187 
172 202 
172 203 
172 216 
172 217 
173 174 
173 175 
173 176 
173 177 
173 178 
173 179 
173 180 
173 186 
173 188 
173 200 
173 203 
173 213 
173 218 
174 175 
174 176 
174 177 
174 178 
174 179 
174 180 
174 189 
174 195 
174 204 
174 205 
174 219 
174 223 
175 176 
175 177 
175 178 
175 179 
175 180 
175 189 
175 190 
175 205 
175 207 
175 212 
175 220 
176 177 
176 178 
176 179 
176 180 
176 190 
176 191 
176 204 
176 206 
176 214 
176 221 
177 178 
177 179 
177 180 
177 191 
177 192 
177 201 
177 207 
177 219 
177 222 
178 179 
178 180 
178 192 
178 193 
178 206 
178 208 
178 220 
178 223 
179 180 
179 193 
179 194 
179 198 
179 209 
179 221 
179 224 
180 194 
180 195 
180 208 
180 210 
180 222 
180 225 
181 182 
181 183 
181 184 
181 185 
181 186 
181 187 
181 188 
181 189 
181 190 
181 191 
181 192 
181 193 
181 194 
181 195 
181 196 
181 210 
181 211 
181 215 
182 183 
182 184 
182 185 
182 186 
182 187 
182 188 
182 189 
182 190 
182 191 
182 192 
182 193 
182 194 
182 195 
182 197 
182 202 
182 211 
182 212 
183 184 
183 185 
183 186 
183 187 
183 188 
183 189 
183 190 
183 191 
183 192 
183 193 
183 194 
183 195 
183 198 
183 209 
183 213 
183 225 
184 185 
184 186 
184 187 
184 188 
184 189 
184 190 
184 191 
184 192 
184 193 
184 194 
184 195 
184 199 
184 203 
184 214 
184 216 
185 186 
185 187 
185 188 
185 189 
185 190 
185 191 
185 192 
185 193 
185 194 
185 195 
185 197 
185 200 
185 215 
185 217 
186 187 
186 188 
186 189 
186 190 
186 191 
186 192 
186 193 
186 194 
186 195 
186 200 
186 201 
186 213 
186 216 
187 188 
187 189 
187 190 
187 191 
187 192 
187 193 
187 194 
187 195 
187 199 
187 202 
187 217 
187 218 
188 189 
188 190 
188 191 
188 192 
188 193 
188 194 
188 195 
188 196 
188 203 
188 218 
188 224 
189 190 
189 191 
189 192 
189 193 
189 194 
189 195 
189 204 
189 207 
189 212 
189 219 
190 191 
190 192 
190 193 
190 194 
190 195 
190 204 
190 205 
190 214 
190 220 
191 192 
191 193 
191 194 
191 195 
191 201 
191 206 
191 219 
191 221 
192 193 
192 194 
192 195 
192 206 
192 207 
192 220 
192 222 
193 194 
193 195 
193 198 
193 208 
193 221 
193 223 
194 195 
194 208 
194 209 
194 222 
194 224 
195 205 
195 210 
195 223 
195 225 
196 197 
196 198 
196 199 
196 200 
196 201 
196 202 
196 203 
196 204 
196 205 
196 206 
196 207 
196 208 
196 209 
196 210 
196 211 
196 224 
197 198 
197 199 
197 200 
197 201 
197 202 
197 203 
197 204 
197 205 
197 206 
197 207 
197 208 
197 209 
197 210 
197 212 
197 217 
198 199 
198 200 
198 201 
198 202 
198 203 
198 204 
198 205 
198 206 
198 207 
198 208 
198 209 
198 210 
198 213 
198 221 
199 200 
199 201 
199 202 
199 203 
199 204 
199 205 
199 206 
199 207 
199 208 
199 209 
199 210 
199 214 
199 218 
200 201 
200 202 
200 203 
200 204 
200 205 
200 206 
200 207 
200 208 
200 209 
200 210 
200 213 
200 215 
201 202 
201 203 
201 204 
201 205 
201 206 
201 207 
201 208 
201 209 
201 210 
201 216 
201 219 
202 203 
202 204 
202 205 
202 206 
202 207 
202 208 
202 209 
202 210 
202 211 
202 217 
203 204 
203 205 
203 206 
203 207 
203 208 
203 209 
203 210 
203 216 
203 218 
204 205 
204 206 
204 207 
204 208 
204 209 
204 210 
204 214 
204 219 
205 206 
205 207 
205 208 
205 209 
205 210 
205 220 
205 223 
206 207 
206 208 
206 209 
206 210 
206 220 
206 221 
207 208 
207 209 
207 210 
207 212 
207 222 
208 209 
208 210 
208 222 
208 223 
209 210 
209 224 
209 225 
210 215 
210 225 
211 212 
211 213 
211 214 
211 215 
211 216 
211 217 
211 218 
211 219 
211 220 
211 221 
211 222 
211 223 
211 224 
211 225 
212 213 
212 214 
212 215 
212 216 
212 217 
212 218 
212 219 
212 220 
212 221 
212 222 
212 223 
212 224 
212 225 
213 214 
213 215 
213 216 
213 217 
213 218 
213 219 
213 220 
213 221 
213 222 
213 223 
213 224 
213 225 
214 215 
214 216 
214 217 
214 218 
214 219 
214 220 
214 221 
214 222 
214 223 
214 224 
214 225 
215 216 
215 217 
215 218 
215 219 
215 220 
215 221 
215 222 
215 223 
215 224 
215 225 
216 217 
216 218 
216 219 
216 220 
216 221 
216 222 
216 223 
216 224 
216 225 
217 218 
217 219 
217 220 
217 221 
217 222 
217 223 
217 224 
217 225 
218 219 
218 220 
218 221 
218 222 
218 223 
218 224 
218 225 
219 220 
219 221 
219 222 
219 223 
219 224 
219 225 
220 221 
220 222 
220 223 
220 224 
220 225 
221 222 
221 223 
221 224 
221 225 
222 223 
222 224 
222 225 
223 224 
223 225 
224 225 
